words_hard_train/2656.qaiger
aag 151 24 0 1 127
2
4
12
20
28
36
48
56
70
76
84
98
112
120
136
158
166
180
194
202
216
226
228
236
302
6 2 4
8 3 5
10 7 9
14 11 13
16 10 12
18 15 17
22 20 2
24 18 22
26 25 17
30 9 28
32 8 29
34 31 33
38 35 37
40 34 36
42 39 41
44 27 42
46 45 41
50 33 48
52 32 49
54 51 53
58 55 57
60 54 56
62 59 61
64 46 63
66 47 62
68 65 67
72 69 71
74 67 61
78 53 76
80 52 77
82 79 81
86 83 85
88 82 84
90 87 89
92 74 91
94 75 90
96 93 95
100 97 99
102 96 98
104 101 103
106 73 104
108 19 23
110 109 25
114 111 113
116 110 112
118 115 117
122 118 120
124 21 3
126 125 23
128 122 126
130 129 117
132 26 43
134 133 45
138 135 137
140 134 136
142 139 141
144 131 142
146 145 141
148 68 70
150 146 149
152 106 151
154 153 103
156 95 89
160 81 158
162 80 159
164 161 163
168 165 167
170 164 166
172 169 171
174 156 173
176 157 172
178 175 177
182 179 181
184 178 180
186 183 185
188 155 186
190 189 185
192 177 171
196 163 194
198 162 195
200 197 199
204 201 203
206 200 202
208 205 207
210 192 209
212 193 208
214 211 213
218 215 217
220 214 216
222 219 221
224 190 223
230 227 228
232 226 229
234 231 233
238 234 237
240 235 236
242 239 241
244 242 199
246 243 198
248 245 247
250 213 207
252 249 250
254 248 251
256 253 255
258 257 221
260 224 259
262 191 222
264 261 263
266 263 221
268 256 267
270 265 269
272 154 187
274 73 149
276 275 146
278 273 277
280 119 127
282 280 121
284 130 143
286 285 153
288 283 286
290 105 149
292 291 129
294 292 145
296 288 294
298 278 296
300 298 189
302 270 301
i0 2 y2[0]
i1 2 y2[1]
i2 2 y1[1]
i3 2 y1[0]
i4 2 y2[2]
i5 2 y1[2]
i6 2 y2[3]
i7 2 y1[3]
i8 1 x1[3]
i9 2 y2[4]
i10 2 y1[4]
i11 1 x1[4]
i12 1 x1[1]
i13 1 x1[0]
i14 1 x1[2]
i15 2 y2[5]
i16 2 y1[5]
i17 1 x1[5]
i18 2 y2[6]
i19 2 y1[6]
i20 1 x1[6]
i21 1 x1[7]
i22 2 y1[7]
i23 2 y2[7]
o0 bv[0]
c
simplified
  <
    add
      1 x1
      subtract
        2 y1
        2 y2
    invert
      -190
