words_hard_train/2656.qaiger.qdimacs
p cnf 151 382
a 35 68 108 49 113 56 90 60 0
e 1 2 3 4 5 6 7 8 9 10 11 12 13 14 15 16 17 18 19 20 21 22 23 24 25 26 27 28 29 30 31 32 33 34 36 37 38 39 40 41 42 43 44 45 46 47 48 50 51 52 53 54 55 57 58 59 61 62 63 64 65 66 67 69 70 71 72 73 74 75 76 77 78 79 80 81 82 83 84 85 86 87 88 89 91 92 93 94 95 96 97 98 99 100 101 102 103 104 105 106 107 109 110 111 112 114 115 116 117 118 119 120 121 122 123 124 125 126 127 128 129 130 131 132 133 134 135 136 137 138 139 140 141 142 143 144 145 146 147 148 149 150 151 0
-1 -2 3 0
1 -3 0
2 -3 0
1 2 4 0
-1 -4 0
-2 -4 0
3 4 5 0
-3 -5 0
-4 -5 0
5 6 7 0
-5 -7 0
-6 -7 0
-5 -6 8 0
5 -8 0
6 -8 0
7 8 9 0
-7 -9 0
-8 -9 0
-10 -1 11 0
10 -11 0
1 -11 0
-9 -11 12 0
9 -12 0
11 -12 0
12 8 13 0
-12 -13 0
-8 -13 0
4 -14 15 0
-4 -15 0
14 -15 0
-4 14 16 0
4 -16 0
-14 -16 0
15 16 17 0
-15 -17 0
-16 -17 0
17 18 19 0
-17 -19 0
-18 -19 0
-17 -18 20 0
17 -20 0
18 -20 0
19 20 21 0
-19 -21 0
-20 -21 0
13 -21 22 0
-13 -22 0
21 -22 0
22 20 23 0
-22 -23 0
-20 -23 0
16 -24 25 0
-16 -25 0
24 -25 0
-16 24 26 0
16 -26 0
-24 -26 0
25 26 27 0
-25 -27 0
-26 -27 0
27 28 29 0
-27 -29 0
-28 -29 0
-27 -28 30 0
27 -30 0
28 -30 0
29 30 31 0
-29 -31 0
-30 -31 0
-23 31 32 0
23 -32 0
-31 -32 0
23 -31 33 0
-23 -33 0
31 -33 0
32 33 34 0
-32 -34 0
-33 -34 0
34 35 36 0
-34 -36 0
-35 -36 0
33 30 37 0
-33 -37 0
-30 -37 0
26 -38 39 0
-26 -39 0
38 -39 0
-26 38 40 0
26 -40 0
-38 -40 0
39 40 41 0
-39 -41 0
-40 -41 0
41 42 43 0
-41 -43 0
-42 -43 0
-41 -42 44 0
41 -44 0
42 -44 0
43 44 45 0
-43 -45 0
-44 -45 0
-37 45 46 0
37 -46 0
-45 -46 0
37 -45 47 0
-37 -47 0
45 -47 0
46 47 48 0
-46 -48 0
-47 -48 0
48 49 50 0
-48 -50 0
-49 -50 0
-48 -49 51 0
48 -51 0
49 -51 0
50 51 52 0
-50 -52 0
-51 -52 0
36 -52 53 0
-36 -53 0
52 -53 0
9 11 54 0
-9 -54 0
-11 -54 0
54 12 55 0
-54 -55 0
-12 -55 0
55 56 57 0
-55 -57 0
-56 -57 0
-55 -56 58 0
55 -58 0
56 -58 0
57 58 59 0
-57 -59 0
-58 -59 0
-59 -60 61 0
59 -61 0
60 -61 0
10 1 62 0
-10 -62 0
-1 -62 0
62 11 63 0
-62 -63 0
-11 -63 0
-61 -63 64 0
61 -64 0
63 -64 0
64 58 65 0
-64 -65 0
-58 -65 0
-13 21 66 0
13 -66 0
-21 -66 0
66 22 67 0
-66 -67 0
-22 -67 0
67 68 69 0
-67 -69 0
-68 -69 0
-67 -68 70 0
67 -70 0
68 -70 0
69 70 71 0
-69 -71 0
-70 -71 0
65 -71 72 0
-65 -72 0
71 -72 0
72 70 73 0
-72 -73 0
-70 -73 0
-34 -35 74 0
34 -74 0
35 -74 0
-73 74 75 0
73 -75 0
-74 -75 0
-53 75 76 0
53 -76 0
-75 -76 0
76 51 77 0
-76 -77 0
-51 -77 0
47 44 78 0
-47 -78 0
-44 -78 0
40 -79 80 0
-40 -80 0
79 -80 0
-40 79 81 0
40 -81 0
-79 -81 0
80 81 82 0
-80 -82 0
-81 -82 0
82 83 84 0
-82 -84 0
-83 -84 0
-82 -83 85 0
82 -85 0
83 -85 0
84 85 86 0
-84 -86 0
-85 -86 0
-78 86 87 0
78 -87 0
-86 -87 0
78 -86 88 0
-78 -88 0
86 -88 0
87 88 89 0
-87 -89 0
-88 -89 0
89 90 91 0
-89 -91 0
-90 -91 0
-89 -90 92 0
89 -92 0
90 -92 0
91 92 93 0
-91 -93 0
-92 -93 0
77 -93 94 0
-77 -94 0
93 -94 0
94 92 95 0
-94 -95 0
-92 -95 0
88 85 96 0
-88 -96 0
-85 -96 0
81 -97 98 0
-81 -98 0
97 -98 0
-81 97 99 0
81 -99 0
-97 -99 0
98 99 100 0
-98 -100 0
-99 -100 0
100 101 102 0
-100 -102 0
-101 -102 0
-100 -101 103 0
100 -103 0
101 -103 0
102 103 104 0
-102 -104 0
-103 -104 0
-96 104 105 0
96 -105 0
-104 -105 0
96 -104 106 0
-96 -106 0
104 -106 0
105 106 107 0
-105 -107 0
-106 -107 0
107 108 109 0
-107 -109 0
-108 -109 0
-107 -108 110 0
107 -110 0
108 -110 0
109 110 111 0
-109 -111 0
-110 -111 0
-95 111 112 0
95 -112 0
-111 -112 0
113 -114 115 0
-113 -115 0
114 -115 0
-113 114 116 0
113 -116 0
-114 -116 0
115 116 117 0
-115 -117 0
-116 -117 0
-117 118 119 0
117 -119 0
-118 -119 0
117 -118 120 0
-117 -120 0
118 -120 0
119 120 121 0
-119 -121 0
-120 -121 0
-121 99 122 0
121 -122 0
-99 -122 0
121 -99 123 0
-121 -123 0
99 -123 0
122 123 124 0
-122 -124 0
-123 -124 0
106 103 125 0
-106 -125 0
-103 -125 0
124 -125 126 0
-124 -126 0
125 -126 0
-124 125 127 0
124 -127 0
-125 -127 0
126 127 128 0
-126 -128 0
-127 -128 0
128 110 129 0
-128 -129 0
-110 -129 0
-112 129 130 0
112 -130 0
-129 -130 0
95 -111 131 0
-95 -131 0
111 -131 0
130 131 132 0
-130 -132 0
-131 -132 0
131 110 133 0
-131 -133 0
-110 -133 0
-128 133 134 0
128 -134 0
-133 -134 0
132 134 135 0
-132 -135 0
-134 -135 0
-77 93 136 0
77 -136 0
-93 -136 0
36 74 137 0
-36 -137 0
-74 -137 0
137 -73 138 0
-137 -138 0
73 -138 0
136 138 139 0
-136 -139 0
-138 -139 0
59 63 140 0
-59 -140 0
-63 -140 0
-140 60 141 0
140 -141 0
-60 -141 0
-65 71 142 0
65 -142 0
-71 -142 0
142 76 143 0
-142 -143 0
-76 -143 0
141 -143 144 0
-141 -144 0
143 -144 0
52 74 145 0
-52 -145 0
-74 -145 0
145 64 146 0
-145 -146 0
-64 -146 0
-146 72 147 0
146 -147 0
-72 -147 0
-144 -147 148 0
144 -148 0
147 -148 0
-139 -148 149 0
139 -149 0
148 -149 0
-149 94 150 0
149 -150 0
-94 -150 0
-135 150 151 0
135 -151 0
-150 -151 0
151 0
